problem_generation/data/GISP/train/er_n=63_m=1117_p=0.60_SET2_setparam=100.00_alpha=0.50_453.lp
maximize
OBJ:100x0 + 100x1 + 100x2 + 100x3 + 100x4 + 100x5 + 100x6 + 100x7 + 100x8 + 100x9 + 100x10 + 100x11 + 100x12 + 100x13 + 100x14 + 100x15 + 100x16 + 100x17 + 100x18 + 100x19 + 100x20 + 100x21 + 100x22 + 100x23 + 100x24 + 100x25 + 100x26 + 100x27 + 100x28 + 100x29 + 100x30 + 100x31 + 100x32 + 100x33 + 100x34 + 100x35 + 100x36 + 100x37 + 100x38 + 100x39 + 100x40 + 100x41 + 100x42 + 100x43 + 100x44 + 100x45 + 100x46 + 100x47 + 100x48 + 100x49 + 100x50 + 100x51 + 100x52 + 100x53 + 100x54 + 100x55 + 100x56 + 100x57 + 100x58 + 100x59 + 100x60 + 100x61 + 100x62 - y55_57 - y15_30 - y26_30 - y7_26 - y18_26 - y15_39 - y17_58 - y18_35 - y29_32 - y40_41 - y8_18 - y40_50 - y6_57 - y10_36 - y25_34 - y3_24 - y3_33 - y15_16 - y7_30 - y17_62 - y48_58 - y6_52 - y21_50 - y10_22 - y10_40 - y2_45 - y22_23 - y3_19 - y14_19 - y3_28 - y13_60 - y14_37 - y16_56 - y36_43 - y47_52 - y5_46 - y36_61 - y47_61 - y5_55 - y21_27 - y6_38 - y21_45 - y6_56 - y10_17 - y54_60 - y33_37 - y25_33 - y2_40 - y3_5 - y2_49 - y43_50 - y1_53 - y35_55 - y17_25 - y9_30 - y55_60 - y5_41 - y17_43 - y9_48 - y21_40 - y6_51 - y2_8 - y2_17 - y31_53 - y10_30 - y54_55 - y20_62 - y25_28 - y10_39 - y2_35 - y13_32 - y24_32 - y32_45 - y43_45 - y51_58 - y24_41 - y3_18 - y13_59 - y24_59 - y35_59 - y17_20 - y17_38 - y5_45 - y9_43 - y50_53 - y61_62 - y6_37 - y21_35 - y39_43 - y20_39 - y2_3 - y10_25 - y12_44 - y39_61 - y54_59 - y12_53 - y24_27 - y51_53 - y1_34 - y24_36 - y32_49 - y35_36 - y1_43 - y24_45 - y35_45 - y13_54 - y35_54 - y46_60 - y36_37 - y5_40 - y9_47 - y42_44 - y8_51 - y8_60 - y11_56 - y39_56 - y23_39 - y2_16 - y20_52 - y31_52 - y12_48 - y13_22 - y16_18 - y13_31 - y24_31 - y24_40 - y35_49 - y35_58 - y9_15 - y49_51 - y5_26 - y17_28 - y38_60 - y17_37 - y6_18 - y8_46 - y30_46 - y8_55 - y19_55 - y42_57 - y23_25 - y31_38 - y39_51 - y31_56 - y1_15 - y23_61 - y1_24 - y53_62 - y16_49 - y5_12 - y9_10 - y46_59 - y5_30 - y7_58 - y27_36 - y6_13 - y30_41 - y11_37 - y0_46 - y11_46 - y31_42 - y4_25 - y12_38 - y4_43 - y12_56 - y13_21 - y23_56 - y4_52 - y34_53 - y24_30 - y45_62 - y37_58 - y16_35 - y38_41 - y5_25 - y18_53 - y27_31 - y7_62 - y8_36 - y27_49 - y11_32 - y0_41 - y30_54 - y12_15 - y0_59 - y12_24 - y41_60 - y12_33 - y23_33 - y4_29 - y12_42 - y23_42 - y16_21 - y22_55 - y37_53 - y16_30 - y46_49 - y26_43 - y46_58 - y57_58 - y49_54 - y7_48 - y8_13 - y8_22 - y0_18 - y11_18 - y27_44 - y8_40 - y52_55 - y4_15 - y33_51 - y23_28 - y4_24 - y33_60 - y44_60 - y22_50 - y34_61 - y45_61 - y14_55 - y26_29 - y15_38 - y38_40 - y15_47 - y18_43 - y11_13 - y7_61 - y30_35 - y30_44 - y0_40 - y12_23 - y41_59 - y4_19 - y22_45 - y45_47 - y34_56 - y45_56 - y37_52 - y3_59 - y15_24 - y18_20 - y7_29 - y7_38 - y18_38 - y7_47 - y8_21 - y48_57 - y21_58 - y2_44 - y10_57 - y33_59 - y25_55 - y22_49 - y3_54 - y15_19 - y37_56 - y7_24 - y26_37 - y7_33 - y26_46 - y18_42 - y29_39 - y0_21 - y10_34 - y33_36 - y41_58 - y52_58 - y44_54 - y10_61 - y25_59 - y22_35 - y3_31 - y14_31 - y3_49 - y36_46 - y7_19 - y47_55 - y17_51 - y7_28 - y40_52 - y29_61 - y21_57 - y2_25 - y10_47 - y2_52 - y3_17 - y32_53 - y22_30 - y22_39 - y3_35 - y18_23 - y59_61 - y5_62 - y6_27 - y9_60 - y21_25 - y0_2 - y6_36 - y21_43 - y6_54 - y21_52 - y21_61 - y10_24 - y54_58 - y33_35 - y2_29 - y10_42 - y10_51 - y22_25 - y51_61 - y32_57 - y35_53 - y1_60 - y7_9 - y47_54 - y9_37 - y6_22 - y21_29 - y21_38 - y40_51 - y39_55 - y20_60 - y2_33 - y25_35 - y3_7 - y35_39 - y14_16 - y13_48 - y35_48 - y32_61 - y43_61 - y1_55 - y17_18 - y17_36 - y36_49 - y5_43 - y17_54 - y6_17 - y5_61 - y9_59 - y29_37 - y21_33 - y21_42 - y2_10 - y20_46 - y54_57 - y10_32 - y23_51 - y12_60 - y2_37 - y13_34 - y24_34 - y43_47 - y51_60 - y24_52 - y1_59 - y13_61 - y24_61 - y35_61 - y5_20 - y17_22 - y5_29 - y17_31 - y28_40 - y28_49 - y6_12 - y9_45 - y5_56 - y9_54 - y50_55 - y20_50 - y23_46 - y2_23 - y4_42 - y20_59 - y31_59 - y4_60 - y51_55 - y1_36 - y13_47 - y5_15 - y9_13 - y36_39 - y38_58 - y17_35 - y28_35 - y5_51 - y27_48 - y50_59 - y0_49 - y20_36 - y39_49 - y23_32 - y2_9 - y12_41 - y31_54 - y54_56 - y23_50 - y53_60 - y32_46 - y35_42 - y16_38 - y24_51 - y1_58 - y17_21 - y9_17 - y38_53 - y5_28 - y28_30 - y15_60 - y27_34 - y19_39 - y30_39 - y50_54 - y19_48 - y30_57 - y42_59 - y0_53 - y11_53 - y20_31 - y23_27 - y31_40 - y4_23 - y23_45 - y12_54 - y1_26 - y13_28 - y34_60 - y46_61 - y15_55 - y7_51 - y27_29 - y7_60 - y19_34 - y27_56 - y8_52 - y30_52 - y0_48 - y19_61 - y0_57 - y12_49 - y23_49 - y53_59 - y4_54 - y37_51 - y16_28 - y37_60 - y38_43 - y5_18 - y38_52 - y49_52 - y11_25 - y8_38 - y8_47 - y42_49 - y30_56 - y11_52 - y41_62 - y52_62 - y31_39 - y33_58 - y4_40 - y34_41 - y13_18 - y56_59 - y14_53 - y14_62 - y26_27 - y7_32 - y18_32 - y38_47 - y18_41 - y26_54 - y8_15 - y18_59 - y48_60 - y27_46 - y0_29 - y11_38 - y30_51 - y41_48 - y60_61 - y33_53 - y44_53 - y25_49 - y4_26 - y33_62 - y25_58 - y4_35 - y1_20 - y37_41 - y53_58 - y34_54 - y37_59 - y26_31 - y7_27 - y15_40 - y8_10 - y15_58 - y7_54 - y18_54 - y27_32 - y0_24 - y29_60 - y0_42 - y41_52 - y25_44 - y10_55 - y22_29 - y25_62 - y22_38 - y34_40 - y14_34 - y3_43 - y14_43 - y7_13 - y3_61 - y18_22 - y18_31 - y18_40 - y0_1 - y18_49 - y48_50 - y0_10 - y19_23 - y11_19 - y29_55 - y40_55 - y0_28 - y41_47 - y41_56 - y44_52 - y3_20 - y34_44 - y14_38 - y37_49 - y3_56
 Subject to
C1: x0+x1-y0_1 <=1 
C2: x0+x2-y0_2 <=1 
C3: x0+x4 <=1 
C4: x0+x7 <=1 
C5: x0+x8 <=1 
C6: x0+x9 <=1 
C7: x0+x10-y0_10 <=1 
C8: x0+x15 <=1 
C9: x0+x17 <=1 
C10: x0+x18-y0_18 <=1 
C11: x0+x20 <=1 
C12: x0+x21-y0_21 <=1 
C13: x0+x24-y0_24 <=1 
C14: x0+x25 <=1 
C15: x0+x28-y0_28 <=1 
C16: x0+x29-y0_29 <=1 
C17: x0+x30 <=1 
C18: x0+x33 <=1 
C19: x0+x37 <=1 
C20: x0+x39 <=1 
C21: x0+x40-y0_40 <=1 
C22: x0+x41-y0_41 <=1 
C23: x0+x42-y0_42 <=1 
C24: x0+x46-y0_46 <=1 
C25: x0+x48-y0_48 <=1 
C26: x0+x49-y0_49 <=1 
C27: x0+x50 <=1 
C28: x0+x51 <=1 
C29: x0+x53-y0_53 <=1 
C30: x0+x54 <=1 
C31: x0+x55 <=1 
C32: x0+x57-y0_57 <=1 
C33: x0+x58 <=1 
C34: x0+x59-y0_59 <=1 
C35: x0+x60 <=1 
C36: x0+x61 <=1 
C37: x0+x62 <=1 
C38: x1+x4 <=1 
C39: x1+x5 <=1 
C40: x1+x6 <=1 
C41: x1+x7 <=1 
C42: x1+x9 <=1 
C43: x1+x10 <=1 
C44: x1+x11 <=1 
C45: x1+x12 <=1 
C46: x1+x15-y1_15 <=1 
C47: x1+x17 <=1 
C48: x1+x20-y1_20 <=1 
C49: x1+x21 <=1 
C50: x1+x22 <=1 
C51: x1+x23 <=1 
C52: x1+x24-y1_24 <=1 
C53: x1+x25 <=1 
C54: x1+x26-y1_26 <=1 
C55: x1+x27 <=1 
C56: x1+x28 <=1 
C57: x1+x29 <=1 
C58: x1+x30 <=1 
C59: x1+x33 <=1 
C60: x1+x34-y1_34 <=1 
C61: x1+x36-y1_36 <=1 
C62: x1+x37 <=1 
C63: x1+x41 <=1 
C64: x1+x43-y1_43 <=1 
C65: x1+x51 <=1 
C66: x1+x53-y1_53 <=1 
C67: x1+x55-y1_55 <=1 
C68: x1+x58-y1_58 <=1 
C69: x1+x59-y1_59 <=1 
C70: x1+x60-y1_60 <=1 
C71: x2+x3-y2_3 <=1 
C72: x2+x4 <=1 
C73: x2+x6 <=1 
C74: x2+x7 <=1 
C75: x2+x8-y2_8 <=1 
C76: x2+x9-y2_9 <=1 
C77: x2+x10-y2_10 <=1 
C78: x2+x13 <=1 
C79: x2+x14 <=1 
C80: x2+x16-y2_16 <=1 
C81: x2+x17-y2_17 <=1 
C82: x2+x22 <=1 
C83: x2+x23-y2_23 <=1 
C84: x2+x24 <=1 
C85: x2+x25-y2_25 <=1 
C86: x2+x29-y2_29 <=1 
C87: x2+x31 <=1 
C88: x2+x33-y2_33 <=1 
C89: x2+x35-y2_35 <=1 
C90: x2+x36 <=1 
C91: x2+x37-y2_37 <=1 
C92: x2+x40-y2_40 <=1 
C93: x2+x41 <=1 
C94: x2+x42 <=1 
C95: x2+x44-y2_44 <=1 
C96: x2+x45-y2_45 <=1 
C97: x2+x46 <=1 
C98: x2+x47 <=1 
C99: x2+x49-y2_49 <=1 
C100: x2+x51 <=1 
C101: x2+x52-y2_52 <=1 
C102: x2+x54 <=1 
C103: x2+x57 <=1 
C104: x2+x58 <=1 
C105: x2+x62 <=1 
C106: x3+x4 <=1 
C107: x3+x5-y3_5 <=1 
C108: x3+x7-y3_7 <=1 
C109: x3+x10 <=1 
C110: x3+x11 <=1 
C111: x3+x12 <=1 
C112: x3+x13 <=1 
C113: x3+x14 <=1 
C114: x3+x16 <=1 
C115: x3+x17-y3_17 <=1 
C116: x3+x18-y3_18 <=1 
C117: x3+x19-y3_19 <=1 
C118: x3+x20-y3_20 <=1 
C119: x3+x22 <=1 
C120: x3+x24-y3_24 <=1 
C121: x3+x25 <=1 
C122: x3+x26 <=1 
C123: x3+x28-y3_28 <=1 
C124: x3+x31-y3_31 <=1 
C125: x3+x33-y3_33 <=1 
C126: x3+x35-y3_35 <=1 
C127: x3+x37 <=1 
C128: x3+x39 <=1 
C129: x3+x40 <=1 
C130: x3+x42 <=1 
C131: x3+x43-y3_43 <=1 
C132: x3+x44 <=1 
C133: x3+x45 <=1 
C134: x3+x46 <=1 
C135: x3+x47 <=1 
C136: x3+x48 <=1 
C137: x3+x49-y3_49 <=1 
C138: x3+x53 <=1 
C139: x3+x54-y3_54 <=1 
C140: x3+x55 <=1 
C141: x3+x56-y3_56 <=1 
C142: x3+x57 <=1 
C143: x3+x59-y3_59 <=1 
C144: x3+x60 <=1 
C145: x3+x61-y3_61 <=1 
C146: x4+x6 <=1 
C147: x4+x8 <=1 
C148: x4+x10 <=1 
C149: x4+x11 <=1 
C150: x4+x13 <=1 
C151: x4+x14 <=1 
C152: x4+x15-y4_15 <=1 
C153: x4+x17 <=1 
C154: x4+x19-y4_19 <=1 
C155: x4+x22 <=1 
C156: x4+x23-y4_23 <=1 
C157: x4+x24-y4_24 <=1 
C158: x4+x25-y4_25 <=1 
C159: x4+x26-y4_26 <=1 
C160: x4+x27 <=1 
C161: x4+x28 <=1 
C162: x4+x29-y4_29 <=1 
C163: x4+x32 <=1 
C164: x4+x33 <=1 
C165: x4+x34 <=1 
C166: x4+x35-y4_35 <=1 
C167: x4+x36 <=1 
C168: x4+x39 <=1 
C169: x4+x40-y4_40 <=1 
C170: x4+x41 <=1 
C171: x4+x42-y4_42 <=1 
C172: x4+x43-y4_43 <=1 
C173: x4+x45 <=1 
C174: x4+x46 <=1 
C175: x4+x48 <=1 
C176: x4+x49 <=1 
C177: x4+x52-y4_52 <=1 
C178: x4+x54-y4_54 <=1 
C179: x4+x55 <=1 
C180: x4+x58 <=1 
C181: x4+x60-y4_60 <=1 
C182: x4+x61 <=1 
C183: x5+x10 <=1 
C184: x5+x11 <=1 
C185: x5+x12-y5_12 <=1 
C186: x5+x13 <=1 
C187: x5+x14 <=1 
C188: x5+x15-y5_15 <=1 
C189: x5+x16 <=1 
C190: x5+x17 <=1 
C191: x5+x18-y5_18 <=1 
C192: x5+x20-y5_20 <=1 
C193: x5+x25-y5_25 <=1 
C194: x5+x26-y5_26 <=1 
C195: x5+x28-y5_28 <=1 
C196: x5+x29-y5_29 <=1 
C197: x5+x30-y5_30 <=1 
C198: x5+x32 <=1 
C199: x5+x35 <=1 
C200: x5+x38 <=1 
C201: x5+x40-y5_40 <=1 
C202: x5+x41-y5_41 <=1 
C203: x5+x42 <=1 
C204: x5+x43-y5_43 <=1 
C205: x5+x44 <=1 
C206: x5+x45-y5_45 <=1 
C207: x5+x46-y5_46 <=1 
C208: x5+x47 <=1 
C209: x5+x49 <=1 
C210: x5+x51-y5_51 <=1 
C211: x5+x53 <=1 
C212: x5+x55-y5_55 <=1 
C213: x5+x56-y5_56 <=1 
C214: x5+x60 <=1 
C215: x5+x61-y5_61 <=1 
C216: x5+x62-y5_62 <=1 
C217: x6+x7 <=1 
C218: x6+x9 <=1 
C219: x6+x12-y6_12 <=1 
C220: x6+x13-y6_13 <=1 
C221: x6+x17-y6_17 <=1 
C222: x6+x18-y6_18 <=1 
C223: x6+x20 <=1 
C224: x6+x21 <=1 
C225: x6+x22-y6_22 <=1 
C226: x6+x25 <=1 
C227: x6+x26 <=1 
C228: x6+x27-y6_27 <=1 
C229: x6+x29 <=1 
C230: x6+x30 <=1 
C231: x6+x31 <=1 
C232: x6+x34 <=1 
C233: x6+x36-y6_36 <=1 
C234: x6+x37-y6_37 <=1 
C235: x6+x38-y6_38 <=1 
C236: x6+x40 <=1 
C237: x6+x44 <=1 
C238: x6+x45 <=1 
C239: x6+x46 <=1 
C240: x6+x49 <=1 
C241: x6+x51-y6_51 <=1 
C242: x6+x52-y6_52 <=1 
C243: x6+x54-y6_54 <=1 
C244: x6+x56-y6_56 <=1 
C245: x6+x57-y6_57 <=1 
C246: x6+x58 <=1 
C247: x7+x8 <=1 
C248: x7+x9-y7_9 <=1 
C249: x7+x10 <=1 
C250: x7+x11 <=1 
C251: x7+x13-y7_13 <=1 
C252: x7+x14 <=1 
C253: x7+x16 <=1 
C254: x7+x19-y7_19 <=1 
C255: x7+x21 <=1 
C256: x7+x23 <=1 
C257: x7+x24-y7_24 <=1 
C258: x7+x26-y7_26 <=1 
C259: x7+x27-y7_27 <=1 
C260: x7+x28-y7_28 <=1 
C261: x7+x29-y7_29 <=1 
C262: x7+x30-y7_30 <=1 
C263: x7+x31 <=1 
C264: x7+x32-y7_32 <=1 
C265: x7+x33-y7_33 <=1 
C266: x7+x34 <=1 
C267: x7+x37 <=1 
C268: x7+x38-y7_38 <=1 
C269: x7+x42 <=1 
C270: x7+x46 <=1 
C271: x7+x47-y7_47 <=1 
C272: x7+x48-y7_48 <=1 
C273: x7+x49 <=1 
C274: x7+x51-y7_51 <=1 
C275: x7+x54-y7_54 <=1 
C276: x7+x55 <=1 
C277: x7+x57 <=1 
C278: x7+x58-y7_58 <=1 
C279: x7+x59 <=1 
C280: x7+x60-y7_60 <=1 
C281: x7+x61-y7_61 <=1 
C282: x7+x62-y7_62 <=1 
C283: x8+x10-y8_10 <=1 
C284: x8+x13-y8_13 <=1 
C285: x8+x15-y8_15 <=1 
C286: x8+x16 <=1 
C287: x8+x17 <=1 
C288: x8+x18-y8_18 <=1 
C289: x8+x21-y8_21 <=1 
C290: x8+x22-y8_22 <=1 
C291: x8+x25 <=1 
C292: x8+x26 <=1 
C293: x8+x27 <=1 
C294: x8+x28 <=1 
C295: x8+x30 <=1 
C296: x8+x31 <=1 
C297: x8+x32 <=1 
C298: x8+x33 <=1 
C299: x8+x35 <=1 
C300: x8+x36-y8_36 <=1 
C301: x8+x38-y8_38 <=1 
C302: x8+x39 <=1 
C303: x8+x40-y8_40 <=1 
C304: x8+x41 <=1 
C305: x8+x44 <=1 
C306: x8+x46-y8_46 <=1 
C307: x8+x47-y8_47 <=1 
C308: x8+x51-y8_51 <=1 
C309: x8+x52-y8_52 <=1 
C310: x8+x53 <=1 
C311: x8+x54 <=1 
C312: x8+x55-y8_55 <=1 
C313: x8+x56 <=1 
C314: x8+x57 <=1 
C315: x8+x58 <=1 
C316: x8+x59 <=1 
C317: x8+x60-y8_60 <=1 
C318: x8+x62 <=1 
C319: x9+x10-y9_10 <=1 
C320: x9+x13-y9_13 <=1 
C321: x9+x15-y9_15 <=1 
C322: x9+x17-y9_17 <=1 
C323: x9+x18 <=1 
C324: x9+x19 <=1 
C325: x9+x20 <=1 
C326: x9+x21 <=1 
C327: x9+x25 <=1 
C328: x9+x30-y9_30 <=1 
C329: x9+x32 <=1 
C330: x9+x33 <=1 
C331: x9+x35 <=1 
C332: x9+x36 <=1 
C333: x9+x37-y9_37 <=1 
C334: x9+x42 <=1 
C335: x9+x43-y9_43 <=1 
C336: x9+x45-y9_45 <=1 
C337: x9+x47-y9_47 <=1 
C338: x9+x48-y9_48 <=1 
C339: x9+x54-y9_54 <=1 
C340: x9+x55 <=1 
C341: x9+x59-y9_59 <=1 
C342: x9+x60-y9_60 <=1 
C343: x9+x61 <=1 
C344: x10+x14 <=1 
C345: x10+x17-y10_17 <=1 
C346: x10+x19 <=1 
C347: x10+x22-y10_22 <=1 
C348: x10+x24-y10_24 <=1 
C349: x10+x25-y10_25 <=1 
C350: x10+x26 <=1 
C351: x10+x27 <=1 
C352: x10+x30-y10_30 <=1 
C353: x10+x32-y10_32 <=1 
C354: x10+x34-y10_34 <=1 
C355: x10+x35 <=1 
C356: x10+x36-y10_36 <=1 
C357: x10+x37 <=1 
C358: x10+x38 <=1 
C359: x10+x39-y10_39 <=1 
C360: x10+x40-y10_40 <=1 
C361: x10+x41 <=1 
C362: x10+x42-y10_42 <=1 
C363: x10+x43 <=1 
C364: x10+x45 <=1 
C365: x10+x47-y10_47 <=1 
C366: x10+x49 <=1 
C367: x10+x51-y10_51 <=1 
C368: x10+x52 <=1 
C369: x10+x54 <=1 
C370: x10+x55-y10_55 <=1 
C371: x10+x57-y10_57 <=1 
C372: x10+x61-y10_61 <=1 
C373: x10+x62 <=1 
C374: x11+x12 <=1 
C375: x11+x13-y11_13 <=1 
C376: x11+x16 <=1 
C377: x11+x17 <=1 
C378: x11+x18-y11_18 <=1 
C379: x11+x19-y11_19 <=1 
C380: x11+x22 <=1 
C381: x11+x25-y11_25 <=1 
C382: x11+x26 <=1 
C383: x11+x30 <=1 
C384: x11+x32-y11_32 <=1 
C385: x11+x37-y11_37 <=1 
C386: x11+x38-y11_38 <=1 
C387: x11+x40 <=1 
C388: x11+x46-y11_46 <=1 
C389: x11+x50 <=1 
C390: x11+x52-y11_52 <=1 
C391: x11+x53-y11_53 <=1 
C392: x11+x56-y11_56 <=1 
C393: x11+x57 <=1 
C394: x11+x59 <=1 
C395: x12+x13 <=1 
C396: x12+x15-y12_15 <=1 
C397: x12+x20 <=1 
C398: x12+x21 <=1 
C399: x12+x23-y12_23 <=1 
C400: x12+x24-y12_24 <=1 
C401: x12+x25 <=1 
C402: x12+x27 <=1 
C403: x12+x32 <=1 
C404: x12+x33-y12_33 <=1 
C405: x12+x35 <=1 
C406: x12+x36 <=1 
C407: x12+x37 <=1 
C408: x12+x38-y12_38 <=1 
C409: x12+x40 <=1 
C410: x12+x41-y12_41 <=1 
C411: x12+x42-y12_42 <=1 
C412: x12+x44-y12_44 <=1 
C413: x12+x45 <=1 
C414: x12+x48-y12_48 <=1 
C415: x12+x49-y12_49 <=1 
C416: x12+x52 <=1 
C417: x12+x53-y12_53 <=1 
C418: x12+x54-y12_54 <=1 
C419: x12+x56-y12_56 <=1 
C420: x12+x59 <=1 
C421: x12+x60-y12_60 <=1 
C422: x12+x62 <=1 
C423: x13+x18-y13_18 <=1 
C424: x13+x19 <=1 
C425: x13+x21-y13_21 <=1 
C426: x13+x22-y13_22 <=1 
C427: x13+x27 <=1 
C428: x13+x28-y13_28 <=1 
C429: x13+x31-y13_31 <=1 
C430: x13+x32-y13_32 <=1 
C431: x13+x33 <=1 
C432: x13+x34-y13_34 <=1 
C433: x13+x37 <=1 
C434: x13+x38 <=1 
C435: x13+x41 <=1 
C436: x13+x43 <=1 
C437: x13+x44 <=1 
C438: x13+x45 <=1 
C439: x13+x47-y13_47 <=1 
C440: x13+x48-y13_48 <=1 
C441: x13+x50 <=1 
C442: x13+x51 <=1 
C443: x13+x52 <=1 
C444: x13+x53 <=1 
C445: x13+x54-y13_54 <=1 
C446: x13+x56 <=1 
C447: x13+x59-y13_59 <=1 
C448: x13+x60-y13_60 <=1 
C449: x13+x61-y13_61 <=1 
C450: x13+x62 <=1 
C451: x14+x15 <=1 
C452: x14+x16-y14_16 <=1 
C453: x14+x17 <=1 
C454: x14+x19-y14_19 <=1 
C455: x14+x20 <=1 
C456: x14+x21 <=1 
C457: x14+x23 <=1 
C458: x14+x25 <=1 
C459: x14+x31-y14_31 <=1 
C460: x14+x33 <=1 
C461: x14+x34-y14_34 <=1 
C462: x14+x36 <=1 
C463: x14+x37-y14_37 <=1 
C464: x14+x38-y14_38 <=1 
C465: x14+x43-y14_43 <=1 
C466: x14+x44 <=1 
C467: x14+x45 <=1 
C468: x14+x46 <=1 
C469: x14+x47 <=1 
C470: x14+x49 <=1 
C471: x14+x50 <=1 
C472: x14+x52 <=1 
C473: x14+x53-y14_53 <=1 
C474: x14+x55-y14_55 <=1 
C475: x14+x58 <=1 
C476: x14+x60 <=1 
C477: x14+x62-y14_62 <=1 
C478: x15+x16-y15_16 <=1 
C479: x15+x19-y15_19 <=1 
C480: x15+x20 <=1 
C481: x15+x24-y15_24 <=1 
C482: x15+x25 <=1 
C483: x15+x27 <=1 
C484: x15+x30-y15_30 <=1 
C485: x15+x36 <=1 
C486: x15+x38-y15_38 <=1 
C487: x15+x39-y15_39 <=1 
C488: x15+x40-y15_40 <=1 
C489: x15+x41 <=1 
C490: x15+x42 <=1 
C491: x15+x44 <=1 
C492: x15+x47-y15_47 <=1 
C493: x15+x50 <=1 
C494: x15+x52 <=1 
C495: x15+x55-y15_55 <=1 
C496: x15+x58-y15_58 <=1 
C497: x15+x60-y15_60 <=1 
C498: x15+x61 <=1 
C499: x16+x18-y16_18 <=1 
C500: x16+x19 <=1 
C501: x16+x21-y16_21 <=1 
C502: x16+x22 <=1 
C503: x16+x24 <=1 
C504: x16+x25 <=1 
C505: x16+x27 <=1 
C506: x16+x28-y16_28 <=1 
C507: x16+x30-y16_30 <=1 
C508: x16+x35-y16_35 <=1 
C509: x16+x36 <=1 
C510: x16+x37 <=1 
C511: x16+x38-y16_38 <=1 
C512: x16+x45 <=1 
C513: x16+x49-y16_49 <=1 
C514: x16+x50 <=1 
C515: x16+x55 <=1 
C516: x16+x56-y16_56 <=1 
C517: x16+x58 <=1 
C518: x17+x18-y17_18 <=1 
C519: x17+x20-y17_20 <=1 
C520: x17+x21-y17_21 <=1 
C521: x17+x22-y17_22 <=1 
C522: x17+x23 <=1 
C523: x17+x25-y17_25 <=1 
C524: x17+x26 <=1 
C525: x17+x28-y17_28 <=1 
C526: x17+x31-y17_31 <=1 
C527: x17+x32 <=1 
C528: x17+x34 <=1 
C529: x17+x35-y17_35 <=1 
C530: x17+x36-y17_36 <=1 
C531: x17+x37-y17_37 <=1 
C532: x17+x38-y17_38 <=1 
C533: x17+x39 <=1 
C534: x17+x43-y17_43 <=1 
C535: x17+x45 <=1 
C536: x17+x48 <=1 
C537: x17+x49 <=1 
C538: x17+x51-y17_51 <=1 
C539: x17+x54-y17_54 <=1 
C540: x17+x57 <=1 
C541: x17+x58-y17_58 <=1 
C542: x17+x59 <=1 
C543: x17+x60 <=1 
C544: x17+x62-y17_62 <=1 
C545: x18+x19 <=1 
C546: x18+x20-y18_20 <=1 
C547: x18+x22-y18_22 <=1 
C548: x18+x23-y18_23 <=1 
C549: x18+x24 <=1 
C550: x18+x26-y18_26 <=1 
C551: x18+x27 <=1 
C552: x18+x28 <=1 
C553: x18+x30 <=1 
C554: x18+x31-y18_31 <=1 
C555: x18+x32-y18_32 <=1 
C556: x18+x35-y18_35 <=1 
C557: x18+x36 <=1 
C558: x18+x37 <=1 
C559: x18+x38-y18_38 <=1 
C560: x18+x39 <=1 
C561: x18+x40-y18_40 <=1 
C562: x18+x41-y18_41 <=1 
C563: x18+x42-y18_42 <=1 
C564: x18+x43-y18_43 <=1 
C565: x18+x45 <=1 
C566: x18+x47 <=1 
C567: x18+x49-y18_49 <=1 
C568: x18+x50 <=1 
C569: x18+x51 <=1 
C570: x18+x53-y18_53 <=1 
C571: x18+x54-y18_54 <=1 
C572: x18+x55 <=1 
C573: x18+x59-y18_59 <=1 
C574: x19+x21 <=1 
C575: x19+x22 <=1 
C576: x19+x23-y19_23 <=1 
C577: x19+x25 <=1 
C578: x19+x28 <=1 
C579: x19+x29 <=1 
C580: x19+x30 <=1 
C581: x19+x31 <=1 
C582: x19+x34-y19_34 <=1 
C583: x19+x36 <=1 
C584: x19+x39-y19_39 <=1 
C585: x19+x40 <=1 
C586: x19+x42 <=1 
C587: x19+x45 <=1 
C588: x19+x48-y19_48 <=1 
C589: x19+x49 <=1 
C590: x19+x55-y19_55 <=1 
C591: x19+x56 <=1 
C592: x19+x57 <=1 
C593: x19+x58 <=1 
C594: x19+x61-y19_61 <=1 
C595: x19+x62 <=1 
C596: x20+x21 <=1 
C597: x20+x29 <=1 
C598: x20+x30 <=1 
C599: x20+x31-y20_31 <=1 
C600: x20+x36-y20_36 <=1 
C601: x20+x38 <=1 
C602: x20+x39-y20_39 <=1 
C603: x20+x42 <=1 
C604: x20+x43 <=1 
C605: x20+x46-y20_46 <=1 
C606: x20+x49 <=1 
C607: x20+x50-y20_50 <=1 
C608: x20+x52-y20_52 <=1 
C609: x20+x53 <=1 
C610: x20+x54 <=1 
C611: x20+x57 <=1 
C612: x20+x59-y20_59 <=1 
C613: x20+x60-y20_60 <=1 
C614: x20+x61 <=1 
C615: x20+x62-y20_62 <=1 
C616: x21+x25-y21_25 <=1 
C617: x21+x26 <=1 
C618: x21+x27-y21_27 <=1 
C619: x21+x29-y21_29 <=1 
C620: x21+x30 <=1 
C621: x21+x31 <=1 
C622: x21+x32 <=1 
C623: x21+x33-y21_33 <=1 
C624: x21+x34 <=1 
C625: x21+x35-y21_35 <=1 
C626: x21+x36 <=1 
C627: x21+x38-y21_38 <=1 
C628: x21+x39 <=1 
C629: x21+x40-y21_40 <=1 
C630: x21+x41 <=1 
C631: x21+x42-y21_42 <=1 
C632: x21+x43-y21_43 <=1 
C633: x21+x44 <=1 
C634: x21+x45-y21_45 <=1 
C635: x21+x50-y21_50 <=1 
C636: x21+x51 <=1 
C637: x21+x52-y21_52 <=1 
C638: x21+x53 <=1 
C639: x21+x54 <=1 
C640: x21+x55 <=1 
C641: x21+x57-y21_57 <=1 
C642: x21+x58-y21_58 <=1 
C643: x21+x60 <=1 
C644: x21+x61-y21_61 <=1 
C645: x21+x62 <=1 
C646: x22+x23-y22_23 <=1 
C647: x22+x25-y22_25 <=1 
C648: x22+x26 <=1 
C649: x22+x29-y22_29 <=1 
C650: x22+x30-y22_30 <=1 
C651: x22+x31 <=1 
C652: x22+x35-y22_35 <=1 
C653: x22+x37 <=1 
C654: x22+x38-y22_38 <=1 
C655: x22+x39-y22_39 <=1 
C656: x22+x41 <=1 
C657: x22+x44 <=1 
C658: x22+x45-y22_45 <=1 
C659: x22+x46 <=1 
C660: x22+x49-y22_49 <=1 
C661: x22+x50-y22_50 <=1 
C662: x22+x52 <=1 
C663: x22+x55-y22_55 <=1 
C664: x22+x56 <=1 
C665: x22+x57 <=1 
C666: x22+x61 <=1 
C667: x22+x62 <=1 
C668: x23+x25-y23_25 <=1 
C669: x23+x26 <=1 
C670: x23+x27-y23_27 <=1 
C671: x23+x28-y23_28 <=1 
C672: x23+x30 <=1 
C673: x23+x31 <=1 
C674: x23+x32-y23_32 <=1 
C675: x23+x33-y23_33 <=1 
C676: x23+x34 <=1 
C677: x23+x38 <=1 
C678: x23+x39-y23_39 <=1 
C679: x23+x42-y23_42 <=1 
C680: x23+x43 <=1 
C681: x23+x45-y23_45 <=1 
C682: x23+x46-y23_46 <=1 
C683: x23+x48 <=1 
C684: x23+x49-y23_49 <=1 
C685: x23+x50-y23_50 <=1 
C686: x23+x51-y23_51 <=1 
C687: x23+x52 <=1 
C688: x23+x56-y23_56 <=1 
C689: x23+x57 <=1 
C690: x23+x58 <=1 
C691: x23+x61-y23_61 <=1 
C692: x23+x62 <=1 
C693: x24+x26 <=1 
C694: x24+x27-y24_27 <=1 
C695: x24+x29 <=1 
C696: x24+x30-y24_30 <=1 
C697: x24+x31-y24_31 <=1 
C698: x24+x32-y24_32 <=1 
C699: x24+x33 <=1 
C700: x24+x34-y24_34 <=1 
C701: x24+x35 <=1 
C702: x24+x36-y24_36 <=1 
C703: x24+x38 <=1 
C704: x24+x40-y24_40 <=1 
C705: x24+x41-y24_41 <=1 
C706: x24+x45-y24_45 <=1 
C707: x24+x46 <=1 
C708: x24+x49 <=1 
C709: x24+x51-y24_51 <=1 
C710: x24+x52-y24_52 <=1 
C711: x24+x55 <=1 
C712: x24+x59-y24_59 <=1 
C713: x24+x60 <=1 
C714: x24+x61-y24_61 <=1 
C715: x24+x62 <=1 
C716: x25+x28-y25_28 <=1 
C717: x25+x29 <=1 
C718: x25+x31 <=1 
C719: x25+x33-y25_33 <=1 
C720: x25+x34-y25_34 <=1 
C721: x25+x35-y25_35 <=1 
C722: x25+x36 <=1 
C723: x25+x37 <=1 
C724: x25+x39 <=1 
C725: x25+x41 <=1 
C726: x25+x42 <=1 
C727: x25+x44-y25_44 <=1 
C728: x25+x46 <=1 
C729: x25+x47 <=1 
C730: x25+x49-y25_49 <=1 
C731: x25+x50 <=1 
C732: x25+x55-y25_55 <=1 
C733: x25+x58-y25_58 <=1 
C734: x25+x59-y25_59 <=1 
C735: x25+x62-y25_62 <=1 
C736: x26+x27-y26_27 <=1 
C737: x26+x28 <=1 
C738: x26+x29-y26_29 <=1 
C739: x26+x30-y26_30 <=1 
C740: x26+x31-y26_31 <=1 
C741: x26+x36 <=1 
C742: x26+x37-y26_37 <=1 
C743: x26+x38 <=1 
C744: x26+x41 <=1 
C745: x26+x42 <=1 
C746: x26+x43-y26_43 <=1 
C747: x26+x45 <=1 
C748: x26+x46-y26_46 <=1 
C749: x26+x48 <=1 
C750: x26+x49 <=1 
C751: x26+x53 <=1 
C752: x26+x54-y26_54 <=1 
C753: x26+x57 <=1 
C754: x26+x58 <=1 
C755: x26+x60 <=1 
C756: x27+x28 <=1 
C757: x27+x29-y27_29 <=1 
C758: x27+x31-y27_31 <=1 
C759: x27+x32-y27_32 <=1 
C760: x27+x34-y27_34 <=1 
C761: x27+x35 <=1 
C762: x27+x36-y27_36 <=1 
C763: x27+x43 <=1 
C764: x27+x44-y27_44 <=1 
C765: x27+x46-y27_46 <=1 
C766: x27+x48-y27_48 <=1 
C767: x27+x49-y27_49 <=1 
C768: x27+x52 <=1 
C769: x27+x53 <=1 
C770: x27+x54 <=1 
C771: x27+x56-y27_56 <=1 
C772: x28+x30-y28_30 <=1 
C773: x28+x34 <=1 
C774: x28+x35-y28_35 <=1 
C775: x28+x36 <=1 
C776: x28+x40-y28_40 <=1 
C777: x28+x42 <=1 
C778: x28+x43 <=1 
C779: x28+x44 <=1 
C780: x28+x47 <=1 
C781: x28+x49-y28_49 <=1 
C782: x28+x50 <=1 
C783: x28+x52 <=1 
C784: x28+x53 <=1 
C785: x28+x55 <=1 
C786: x28+x56 <=1 
C787: x28+x57 <=1 
C788: x28+x62 <=1 
C789: x29+x32-y29_32 <=1 
C790: x29+x34 <=1 
C791: x29+x35 <=1 
C792: x29+x37-y29_37 <=1 
C793: x29+x39-y29_39 <=1 
C794: x29+x40 <=1 
C795: x29+x41 <=1 
C796: x29+x46 <=1 
C797: x29+x55-y29_55 <=1 
C798: x29+x56 <=1 
C799: x29+x57 <=1 
C800: x29+x60-y29_60 <=1 
C801: x29+x61-y29_61 <=1 
C802: x30+x31 <=1 
C803: x30+x33 <=1 
C804: x30+x34 <=1 
C805: x30+x35-y30_35 <=1 
C806: x30+x37 <=1 
C807: x30+x38 <=1 
C808: x30+x39-y30_39 <=1 
C809: x30+x41-y30_41 <=1 
C810: x30+x42 <=1 
C811: x30+x44-y30_44 <=1 
C812: x30+x46-y30_46 <=1 
C813: x30+x47 <=1 
C814: x30+x51-y30_51 <=1 
C815: x30+x52-y30_52 <=1 
C816: x30+x54-y30_54 <=1 
C817: x30+x56-y30_56 <=1 
C818: x30+x57-y30_57 <=1 
C819: x31+x33 <=1 
C820: x31+x34 <=1 
C821: x31+x35 <=1 
C822: x31+x36 <=1 
C823: x31+x38-y31_38 <=1 
C824: x31+x39-y31_39 <=1 
C825: x31+x40-y31_40 <=1 
C826: x31+x42-y31_42 <=1 
C827: x31+x43 <=1 
C828: x31+x44 <=1 
C829: x31+x45 <=1 
C830: x31+x47 <=1 
C831: x31+x49 <=1 
C832: x31+x52-y31_52 <=1 
C833: x31+x53-y31_53 <=1 
C834: x31+x54-y31_54 <=1 
C835: x31+x55 <=1 
C836: x31+x56-y31_56 <=1 
C837: x31+x57 <=1 
C838: x31+x58 <=1 
C839: x31+x59-y31_59 <=1 
C840: x31+x60 <=1 
C841: x31+x62 <=1 
C842: x32+x34 <=1 
C843: x32+x35 <=1 
C844: x32+x37 <=1 
C845: x32+x39 <=1 
C846: x32+x41 <=1 
C847: x32+x45-y32_45 <=1 
C848: x32+x46-y32_46 <=1 
C849: x32+x48 <=1 
C850: x32+x49-y32_49 <=1 
C851: x32+x53-y32_53 <=1 
C852: x32+x55 <=1 
C853: x32+x56 <=1 
C854: x32+x57-y32_57 <=1 
C855: x32+x58 <=1 
C856: x32+x61-y32_61 <=1 
C857: x33+x35-y33_35 <=1 
C858: x33+x36-y33_36 <=1 
C859: x33+x37-y33_37 <=1 
C860: x33+x41 <=1 
C861: x33+x43 <=1 
C862: x33+x44 <=1 
C863: x33+x46 <=1 
C864: x33+x48 <=1 
C865: x33+x51-y33_51 <=1 
C866: x33+x53-y33_53 <=1 
C867: x33+x54 <=1 
C868: x33+x55 <=1 
C869: x33+x58-y33_58 <=1 
C870: x33+x59-y33_59 <=1 
C871: x33+x60-y33_60 <=1 
C872: x33+x62-y33_62 <=1 
C873: x34+x38 <=1 
C874: x34+x40-y34_40 <=1 
C875: x34+x41-y34_41 <=1 
C876: x34+x43 <=1 
C877: x34+x44-y34_44 <=1 
C878: x34+x45 <=1 
C879: x34+x47 <=1 
C880: x34+x53-y34_53 <=1 
C881: x34+x54-y34_54 <=1 
C882: x34+x55 <=1 
C883: x34+x56-y34_56 <=1 
C884: x34+x60-y34_60 <=1 
C885: x34+x61-y34_61 <=1 
C886: x34+x62 <=1 
C887: x35+x36-y35_36 <=1 
C888: x35+x38 <=1 
C889: x35+x39-y35_39 <=1 
C890: x35+x42-y35_42 <=1 
C891: x35+x44 <=1 
C892: x35+x45-y35_45 <=1 
C893: x35+x47 <=1 
C894: x35+x48-y35_48 <=1 
C895: x35+x49-y35_49 <=1 
C896: x35+x50 <=1 
C897: x35+x52 <=1 
C898: x35+x53-y35_53 <=1 
C899: x35+x54-y35_54 <=1 
C900: x35+x55-y35_55 <=1 
C901: x35+x58-y35_58 <=1 
C902: x35+x59-y35_59 <=1 
C903: x35+x60 <=1 
C904: x35+x61-y35_61 <=1 
C905: x35+x62 <=1 
C906: x36+x37-y36_37 <=1 
C907: x36+x39-y36_39 <=1 
C908: x36+x43-y36_43 <=1 
C909: x36+x46-y36_46 <=1 
C910: x36+x47 <=1 
C911: x36+x49-y36_49 <=1 
C912: x36+x50 <=1 
C913: x36+x53 <=1 
C914: x36+x54 <=1 
C915: x36+x55 <=1 
C916: x36+x57 <=1 
C917: x36+x58 <=1 
C918: x36+x61-y36_61 <=1 
C919: x37+x38 <=1 
C920: x37+x39 <=1 
C921: x37+x41-y37_41 <=1 
C922: x37+x42 <=1 
C923: x37+x47 <=1 
C924: x37+x49-y37_49 <=1 
C925: x37+x50 <=1 
C926: x37+x51-y37_51 <=1 
C927: x37+x52-y37_52 <=1 
C928: x37+x53-y37_53 <=1 
C929: x37+x54 <=1 
C930: x37+x56-y37_56 <=1 
C931: x37+x58-y37_58 <=1 
C932: x37+x59-y37_59 <=1 
C933: x37+x60-y37_60 <=1 
C934: x37+x61 <=1 
C935: x37+x62 <=1 
C936: x38+x39 <=1 
C937: x38+x40-y38_40 <=1 
C938: x38+x41-y38_41 <=1 
C939: x38+x42 <=1 
C940: x38+x43-y38_43 <=1 
C941: x38+x47-y38_47 <=1 
C942: x38+x52-y38_52 <=1 
C943: x38+x53-y38_53 <=1 
C944: x38+x56 <=1 
C945: x38+x57 <=1 
C946: x38+x58-y38_58 <=1 
C947: x38+x59 <=1 
C948: x38+x60-y38_60 <=1 
C949: x38+x61 <=1 
C950: x38+x62 <=1 
C951: x39+x43-y39_43 <=1 
C952: x39+x44 <=1 
C953: x39+x46 <=1 
C954: x39+x47 <=1 
C955: x39+x48 <=1 
C956: x39+x49-y39_49 <=1 
C957: x39+x50 <=1 
C958: x39+x51-y39_51 <=1 
C959: x39+x52 <=1 
C960: x39+x54 <=1 
C961: x39+x55-y39_55 <=1 
C962: x39+x56-y39_56 <=1 
C963: x39+x57 <=1 
C964: x39+x60 <=1 
C965: x39+x61-y39_61 <=1 
C966: x39+x62 <=1 
C967: x40+x41-y40_41 <=1 
C968: x40+x42 <=1 
C969: x40+x44 <=1 
C970: x40+x46 <=1 
C971: x40+x49 <=1 
C972: x40+x50-y40_50 <=1 
C973: x40+x51-y40_51 <=1 
C974: x40+x52-y40_52 <=1 
C975: x40+x54 <=1 
C976: x40+x55-y40_55 <=1 
C977: x40+x57 <=1 
C978: x40+x58 <=1 
C979: x40+x62 <=1 
C980: x41+x45 <=1 
C981: x41+x47-y41_47 <=1 
C982: x41+x48-y41_48 <=1 
C983: x41+x52-y41_52 <=1 
C984: x41+x54 <=1 
C985: x41+x55 <=1 
C986: x41+x56-y41_56 <=1 
C987: x41+x57 <=1 
C988: x41+x58-y41_58 <=1 
C989: x41+x59-y41_59 <=1 
C990: x41+x60-y41_60 <=1 
C991: x41+x62-y41_62 <=1 
C992: x42+x43 <=1 
C993: x42+x44-y42_44 <=1 
C994: x42+x46 <=1 
C995: x42+x49-y42_49 <=1 
C996: x42+x52 <=1 
C997: x42+x54 <=1 
C998: x42+x57-y42_57 <=1 
C999: x42+x59-y42_59 <=1 
C1000: x42+x61 <=1 
C1001: x43+x44 <=1 
C1002: x43+x45-y43_45 <=1 
C1003: x43+x47-y43_47 <=1 
C1004: x43+x50-y43_50 <=1 
C1005: x43+x51 <=1 
C1006: x43+x53 <=1 
C1007: x43+x54 <=1 
C1008: x43+x56 <=1 
C1009: x43+x58 <=1 
C1010: x43+x59 <=1 
C1011: x43+x60 <=1 
C1012: x43+x61-y43_61 <=1 
C1013: x43+x62 <=1 
C1014: x44+x45 <=1 
C1015: x44+x49 <=1 
C1016: x44+x52-y44_52 <=1 
C1017: x44+x53-y44_53 <=1 
C1018: x44+x54-y44_54 <=1 
C1019: x44+x60-y44_60 <=1 
C1020: x44+x62 <=1 
C1021: x45+x46 <=1 
C1022: x45+x47-y45_47 <=1 
C1023: x45+x48 <=1 
C1024: x45+x49 <=1 
C1025: x45+x50 <=1 
C1026: x45+x54 <=1 
C1027: x45+x56-y45_56 <=1 
C1028: x45+x58 <=1 
C1029: x45+x60 <=1 
C1030: x45+x61-y45_61 <=1 
C1031: x45+x62-y45_62 <=1 
C1032: x46+x49-y46_49 <=1 
C1033: x46+x52 <=1 
C1034: x46+x56 <=1 
C1035: x46+x58-y46_58 <=1 
C1036: x46+x59-y46_59 <=1 
C1037: x46+x60-y46_60 <=1 
C1038: x46+x61-y46_61 <=1 
C1039: x46+x62 <=1 
C1040: x47+x48 <=1 
C1041: x47+x51 <=1 
C1042: x47+x52-y47_52 <=1 
C1043: x47+x53 <=1 
C1044: x47+x54-y47_54 <=1 
C1045: x47+x55-y47_55 <=1 
C1046: x47+x60 <=1 
C1047: x47+x61-y47_61 <=1 
C1048: x48+x50-y48_50 <=1 
C1049: x48+x56 <=1 
C1050: x48+x57-y48_57 <=1 
C1051: x48+x58-y48_58 <=1 
C1052: x48+x59 <=1 
C1053: x48+x60-y48_60 <=1 
C1054: x48+x61 <=1 
C1055: x48+x62 <=1 
C1056: x49+x50 <=1 
C1057: x49+x51-y49_51 <=1 
C1058: x49+x52-y49_52 <=1 
C1059: x49+x53 <=1 
C1060: x49+x54-y49_54 <=1 
C1061: x49+x56 <=1 
C1062: x49+x57 <=1 
C1063: x49+x58 <=1 
C1064: x49+x59 <=1 
C1065: x49+x60 <=1 
C1066: x49+x62 <=1 
C1067: x50+x53-y50_53 <=1 
C1068: x50+x54-y50_54 <=1 
C1069: x50+x55-y50_55 <=1 
C1070: x50+x56 <=1 
C1071: x50+x57 <=1 
C1072: x50+x59-y50_59 <=1 
C1073: x50+x60 <=1 
C1074: x50+x62 <=1 
C1075: x51+x53-y51_53 <=1 
C1076: x51+x54 <=1 
C1077: x51+x55-y51_55 <=1 
C1078: x51+x57 <=1 
C1079: x51+x58-y51_58 <=1 
C1080: x51+x59 <=1 
C1081: x51+x60-y51_60 <=1 
C1082: x51+x61-y51_61 <=1 
C1083: x51+x62 <=1 
C1084: x52+x53 <=1 
C1085: x52+x54 <=1 
C1086: x52+x55-y52_55 <=1 
C1087: x52+x57 <=1 
C1088: x52+x58-y52_58 <=1 
C1089: x52+x59 <=1 
C1090: x52+x62-y52_62 <=1 
C1091: x53+x55 <=1 
C1092: x53+x56 <=1 
C1093: x53+x58-y53_58 <=1 
C1094: x53+x59-y53_59 <=1 
C1095: x53+x60-y53_60 <=1 
C1096: x53+x62-y53_62 <=1 
C1097: x54+x55-y54_55 <=1 
C1098: x54+x56-y54_56 <=1 
C1099: x54+x57-y54_57 <=1 
C1100: x54+x58-y54_58 <=1 
C1101: x54+x59-y54_59 <=1 
C1102: x54+x60-y54_60 <=1 
C1103: x55+x56 <=1 
C1104: x55+x57-y55_57 <=1 
C1105: x55+x58 <=1 
C1106: x55+x59 <=1 
C1107: x55+x60-y55_60 <=1 
C1108: x55+x62 <=1 
C1109: x56+x59-y56_59 <=1 
C1110: x56+x62 <=1 
C1111: x57+x58-y57_58 <=1 
C1112: x57+x59 <=1 
C1113: x57+x62 <=1 
C1114: x58+x61 <=1 
C1115: x59+x61-y59_61 <=1 
C1116: x60+x61-y60_61 <=1 
C1117: x61+x62-y61_62 <=1 

binary
x0
x1
x2
x3
x4
x5
x6
x7
x8
x9
x10
x11
x12
x13
x14
x15
x16
x17
x18
x19
x20
x21
x22
x23
x24
x25
x26
x27
x28
x29
x30
x31
x32
x33
x34
x35
x36
x37
x38
x39
x40
x41
x42
x43
x44
x45
x46
x47
x48
x49
x50
x51
x52
x53
x54
x55
x56
x57
x58
x59
x60
x61
x62
