problem_generation/data/GISP/train/er_n=63_m=1117_p=0.60_SET2_setparam=100.00_alpha=0.50_453.sol
objective value:                                 1177
x11                                                 1 	(obj:100)
x19                                                 1 	(obj:100)
x20                                                 1 	(obj:100)
x27                                                 1 	(obj:100)
x34                                                 1 	(obj:100)
x37                                                 1 	(obj:100)
x41                                                 1 	(obj:100)
x44                                                 1 	(obj:100)
x46                                                 1 	(obj:100)
x48                                                 1 	(obj:100)
x51                                                 1 	(obj:100)
x60                                                 1 	(obj:100)
y46_60                                              1 	(obj:-1)
y11_37                                              1 	(obj:-1)
y11_46                                              1 	(obj:-1)
y41_60                                              1 	(obj:-1)
y27_44                                              1 	(obj:-1)
y44_60                                              1 	(obj:-1)
y20_60                                              1 	(obj:-1)
y20_46                                              1 	(obj:-1)
y51_60                                              1 	(obj:-1)
y27_48                                              1 	(obj:-1)
y27_34                                              1 	(obj:-1)
y19_48                                              1 	(obj:-1)
y34_60                                              1 	(obj:-1)
y19_34                                              1 	(obj:-1)
y37_51                                              1 	(obj:-1)
y37_60                                              1 	(obj:-1)
y34_41                                              1 	(obj:-1)
y48_60                                              1 	(obj:-1)
y27_46                                              1 	(obj:-1)
y41_48                                              1 	(obj:-1)
y37_41                                              1 	(obj:-1)
y11_19                                              1 	(obj:-1)
y34_44                                              1 	(obj:-1)
